\ Model mip_model
\ LP format - for model browsing. Use MPS format to capture full model detail.
Minimize
  w[0,0,0] + 2 w[0,0,1] + 3 w[0,0,2] + 4 w[0,0,3] + 5 w[0,0,4] + 6 w[0,0,5]
   + 7 w[0,0,6] + 8 w[0,0,7] + 9 w[0,0,8] + 10 w[0,0,9] + w[0,1,0]
   + 2 w[0,1,1] + 3 w[0,1,2] + 4 w[0,1,3] + 5 w[0,1,4] + 6 w[0,1,5]
   + 7 w[0,1,6] + 8 w[0,1,7] + 9 w[0,1,8] + 10 w[0,1,9] + w[0,2,0]
   + 2 w[0,2,1] + 3 w[0,2,2] + 4 w[0,2,3] + 5 w[0,2,4] + 6 w[0,2,5]
   + 7 w[0,2,6] + 8 w[0,2,7] + 9 w[0,2,8] + 10 w[0,2,9] + w[0,3,0]
   + 2 w[0,3,1] + 3 w[0,3,2] + 4 w[0,3,3] + 5 w[0,3,4] + 6 w[0,3,5]
   + 7 w[0,3,6] + 8 w[0,3,7] + 9 w[0,3,8] + 10 w[0,3,9] + w[0,4,0]
   + 2 w[0,4,1] + 3 w[0,4,2] + 4 w[0,4,3] + 5 w[0,4,4] + 6 w[0,4,5]
   + 7 w[0,4,6] + 8 w[0,4,7] + 9 w[0,4,8] + 10 w[0,4,9] + w[1,0,0]
   + 2 w[1,0,1] + 3 w[1,0,2] + 4 w[1,0,3] + 5 w[1,0,4] + 6 w[1,0,5]
   + 7 w[1,0,6] + 8 w[1,0,7] + 9 w[1,0,8] + 10 w[1,0,9] + w[1,1,0]
   + 2 w[1,1,1] + 3 w[1,1,2] + 4 w[1,1,3] + 5 w[1,1,4] + 6 w[1,1,5]
   + 7 w[1,1,6] + 8 w[1,1,7] + 9 w[1,1,8] + 10 w[1,1,9] + w[1,2,0]
   + 2 w[1,2,1] + 3 w[1,2,2] + 4 w[1,2,3] + 5 w[1,2,4] + 6 w[1,2,5]
   + 7 w[1,2,6] + 8 w[1,2,7] + 9 w[1,2,8] + 10 w[1,2,9] + w[1,3,0]
   + 2 w[1,3,1] + 3 w[1,3,2] + 4 w[1,3,3] + 5 w[1,3,4] + 6 w[1,3,5]
   + 7 w[1,3,6] + 8 w[1,3,7] + 9 w[1,3,8] + 10 w[1,3,9] + w[1,4,0]
   + 2 w[1,4,1] + 3 w[1,4,2] + 4 w[1,4,3] + 5 w[1,4,4] + 6 w[1,4,5]
   + 7 w[1,4,6] + 8 w[1,4,7] + 9 w[1,4,8] + 10 w[1,4,9]
Subject To
 R0: w[0,0,0] = 8
 R1: w[0,1,0] = 2
 R2: w[0,2,0] = 2
 R3: w[0,3,0] = 2
 R4: w[0,4,0] = 2
 R5: w[1,0,0] - c[0,0,0] - c[0,0,1] - c[0,0,2] - c[0,0,3] - c[0,0,4]
   - c[0,0,5] - c[0,0,6] - c[0,0,7] - c[0,0,8] - c[0,0,9] = 2
 R6: w[1,1,0] - c[0,1,0] - c[0,1,1] - c[0,1,2] - c[0,1,3] - c[0,1,4]
   - c[0,1,5] - c[0,1,6] - c[0,1,7] - c[0,1,8] - c[0,1,9] = 1
 R7: w[1,2,0] - c[0,2,0] - c[0,2,1] - c[0,2,2] - c[0,2,3] - c[0,2,4]
   - c[0,2,5] - c[0,2,6] - c[0,2,7] - c[0,2,8] - c[0,2,9] = 2
 R8: w[1,3,0] - c[0,3,0] - c[0,3,1] - c[0,3,2] - c[0,3,3] - c[0,3,4]
   - c[0,3,5] - c[0,3,6] - c[0,3,7] - c[0,3,8] - c[0,3,9] = 2
 R9: w[1,4,0] - c[0,4,0] - c[0,4,1] - c[0,4,2] - c[0,4,3] - c[0,4,4]
   - c[0,4,5] - c[0,4,6] - c[0,4,7] - c[0,4,8] - c[0,4,9] = 2
 R10: - w[0,0,0] + w[0,1,1] + c[0,0,0] = 0
 R11: - w[0,0,1] + w[0,1,2] + c[0,0,1] = 0
 R12: - w[0,0,2] + w[0,1,3] + c[0,0,2] = 0
 R13: - w[0,0,3] + w[0,1,4] + c[0,0,3] = 0
 R14: - w[0,0,4] + w[0,1,5] + c[0,0,4] = 0
 R15: - w[0,0,5] + w[0,1,6] + c[0,0,5] = 0
 R16: - w[0,0,6] + w[0,1,7] + c[0,0,6] = 0
 R17: - w[0,0,7] + w[0,1,8] + c[0,0,7] = 0
 R18: - w[0,0,8] + w[0,1,9] + c[0,0,8] = 0
 R19: - w[0,1,0] + w[0,2,1] + c[0,1,0] = 0
 R20: - w[0,1,1] + w[0,2,2] + c[0,1,1] = 0
 R21: - w[0,1,2] + w[0,2,3] + c[0,1,2] = 0
 R22: - w[0,1,3] + w[0,2,4] + c[0,1,3] = 0
 R23: - w[0,1,4] + w[0,2,5] + c[0,1,4] = 0
 R24: - w[0,1,5] + w[0,2,6] + c[0,1,5] = 0
 R25: - w[0,1,6] + w[0,2,7] + c[0,1,6] = 0
 R26: - w[0,1,7] + w[0,2,8] + c[0,1,7] = 0
 R27: - w[0,1,8] + w[0,2,9] + c[0,1,8] = 0
 R28: - w[0,2,0] + w[0,3,1] + c[0,2,0] = 0
 R29: - w[0,2,1] + w[0,3,2] + c[0,2,1] = 0
 R30: - w[0,2,2] + w[0,3,3] + c[0,2,2] = 0
 R31: - w[0,2,3] + w[0,3,4] + c[0,2,3] = 0
 R32: - w[0,2,4] + w[0,3,5] + c[0,2,4] = 0
 R33: - w[0,2,5] + w[0,3,6] + c[0,2,5] = 0
 R34: - w[0,2,6] + w[0,3,7] + c[0,2,6] = 0
 R35: - w[0,2,7] + w[0,3,8] + c[0,2,7] = 0
 R36: - w[0,2,8] + w[0,3,9] + c[0,2,8] = 0
 R37: - w[0,3,0] + w[0,4,1] + c[0,3,0] = 0
 R38: - w[0,3,1] + w[0,4,2] + c[0,3,1] = 0
 R39: - w[0,3,2] + w[0,4,3] + c[0,3,2] = 0
 R40: - w[0,3,3] + w[0,4,4] + c[0,3,3] = 0
 R41: - w[0,3,4] + w[0,4,5] + c[0,3,4] = 0
 R42: - w[0,3,5] + w[0,4,6] + c[0,3,5] = 0
 R43: - w[0,3,6] + w[0,4,7] + c[0,3,6] = 0
 R44: - w[0,3,7] + w[0,4,8] + c[0,3,7] = 0
 R45: - w[0,3,8] + w[0,4,9] + c[0,3,8] = 0
 R46: - w[1,0,0] + w[1,1,1] + c[1,0,0] = 0
 R47: - w[1,0,1] + w[1,1,2] + c[1,0,1] = 0
 R48: - w[1,0,2] + w[1,1,3] + c[1,0,2] = 0
 R49: - w[1,0,3] + w[1,1,4] + c[1,0,3] = 0
 R50: - w[1,0,4] + w[1,1,5] + c[1,0,4] = 0
 R51: - w[1,0,5] + w[1,1,6] + c[1,0,5] = 0
 R52: - w[1,0,6] + w[1,1,7] + c[1,0,6] = 0
 R53: - w[1,0,7] + w[1,1,8] + c[1,0,7] = 0
 R54: - w[1,0,8] + w[1,1,9] + c[1,0,8] = 0
 R55: - w[1,1,0] + w[1,2,1] + c[1,1,0] = 0
 R56: - w[1,1,1] + w[1,2,2] + c[1,1,1] = 0
 R57: - w[1,1,2] + w[1,2,3] + c[1,1,2] = 0
 R58: - w[1,1,3] + w[1,2,4] + c[1,1,3] = 0
 R59: - w[1,1,4] + w[1,2,5] + c[1,1,4] = 0
 R60: - w[1,1,5] + w[1,2,6] + c[1,1,5] = 0
 R61: - w[1,1,6] + w[1,2,7] + c[1,1,6] = 0
 R62: - w[1,1,7] + w[1,2,8] + c[1,1,7] = 0
 R63: - w[1,1,8] + w[1,2,9] + c[1,1,8] = 0
 R64: - w[1,2,0] + w[1,3,1] + c[1,2,0] = 0
 R65: - w[1,2,1] + w[1,3,2] + c[1,2,1] = 0
 R66: - w[1,2,2] + w[1,3,3] + c[1,2,2] = 0
 R67: - w[1,2,3] + w[1,3,4] + c[1,2,3] = 0
 R68: - w[1,2,4] + w[1,3,5] + c[1,2,4] = 0
 R69: - w[1,2,5] + w[1,3,6] + c[1,2,5] = 0
 R70: - w[1,2,6] + w[1,3,7] + c[1,2,6] = 0
 R71: - w[1,2,7] + w[1,3,8] + c[1,2,7] = 0
 R72: - w[1,2,8] + w[1,3,9] + c[1,2,8] = 0
 R73: - w[1,3,0] + w[1,4,1] + c[1,3,0] = 0
 R74: - w[1,3,1] + w[1,4,2] + c[1,3,1] = 0
 R75: - w[1,3,2] + w[1,4,3] + c[1,3,2] = 0
 R76: - w[1,3,3] + w[1,4,4] + c[1,3,3] = 0
 R77: - w[1,3,4] + w[1,4,5] + c[1,3,4] = 0
 R78: - w[1,3,5] + w[1,4,6] + c[1,3,5] = 0
 R79: - w[1,3,6] + w[1,4,7] + c[1,3,6] = 0
 R80: - w[1,3,7] + w[1,4,8] + c[1,3,7] = 0
 R81: - w[1,3,8] + w[1,4,9] + c[1,3,8] = 0
 R82: - w[0,0,0] + c[0,0,0] <= 0
 R83: - w[0,0,1] + c[0,0,1] <= 0
 R84: - w[0,0,2] + c[0,0,2] <= 0
 R85: - w[0,0,3] + c[0,0,3] <= 0
 R86: - w[0,0,4] + c[0,0,4] <= 0
 R87: - w[0,0,5] + c[0,0,5] <= 0
 R88: - w[0,0,6] + c[0,0,6] <= 0
 R89: - w[0,0,7] + c[0,0,7] <= 0
 R90: - w[0,0,8] + c[0,0,8] <= 0
 R91: - w[0,0,9] + c[0,0,9] <= 0
 R92: - w[0,1,0] + c[0,1,0] <= 0
 R93: - w[0,1,1] + c[0,1,1] <= 0
 R94: - w[0,1,2] + c[0,1,2] <= 0
 R95: - w[0,1,3] + c[0,1,3] <= 0
 R96: - w[0,1,4] + c[0,1,4] <= 0
 R97: - w[0,1,5] + c[0,1,5] <= 0
 R98: - w[0,1,6] + c[0,1,6] <= 0
 R99: - w[0,1,7] + c[0,1,7] <= 0
 R100: - w[0,1,8] + c[0,1,8] <= 0
 R101: - w[0,1,9] + c[0,1,9] <= 0
 R102: - w[0,2,0] + c[0,2,0] <= 0
 R103: - w[0,2,1] + c[0,2,1] <= 0
 R104: - w[0,2,2] + c[0,2,2] <= 0
 R105: - w[0,2,3] + c[0,2,3] <= 0
 R106: - w[0,2,4] + c[0,2,4] <= 0
 R107: - w[0,2,5] + c[0,2,5] <= 0
 R108: - w[0,2,6] + c[0,2,6] <= 0
 R109: - w[0,2,7] + c[0,2,7] <= 0
 R110: - w[0,2,8] + c[0,2,8] <= 0
 R111: - w[0,2,9] + c[0,2,9] <= 0
 R112: - w[0,3,0] + c[0,3,0] <= 0
 R113: - w[0,3,1] + c[0,3,1] <= 0
 R114: - w[0,3,2] + c[0,3,2] <= 0
 R115: - w[0,3,3] + c[0,3,3] <= 0
 R116: - w[0,3,4] + c[0,3,4] <= 0
 R117: - w[0,3,5] + c[0,3,5] <= 0
 R118: - w[0,3,6] + c[0,3,6] <= 0
 R119: - w[0,3,7] + c[0,3,7] <= 0
 R120: - w[0,3,8] + c[0,3,8] <= 0
 R121: - w[0,3,9] + c[0,3,9] <= 0
 R122: - w[0,4,0] + c[0,4,0] <= 0
 R123: - w[0,4,1] + c[0,4,1] <= 0
 R124: - w[0,4,2] + c[0,4,2] <= 0
 R125: - w[0,4,3] + c[0,4,3] <= 0
 R126: - w[0,4,4] + c[0,4,4] <= 0
 R127: - w[0,4,5] + c[0,4,5] <= 0
 R128: - w[0,4,6] + c[0,4,6] <= 0
 R129: - w[0,4,7] + c[0,4,7] <= 0
 R130: - w[0,4,8] + c[0,4,8] <= 0
 R131: - w[0,4,9] + c[0,4,9] <= 0
 R132: - w[1,0,0] + c[1,0,0] <= 0
 R133: - w[1,0,1] + c[1,0,1] <= 0
 R134: - w[1,0,2] + c[1,0,2] <= 0
 R135: - w[1,0,3] + c[1,0,3] <= 0
 R136: - w[1,0,4] + c[1,0,4] <= 0
 R137: - w[1,0,5] + c[1,0,5] <= 0
 R138: - w[1,0,6] + c[1,0,6] <= 0
 R139: - w[1,0,7] + c[1,0,7] <= 0
 R140: - w[1,0,8] + c[1,0,8] <= 0
 R141: - w[1,0,9] + c[1,0,9] <= 0
 R142: - w[1,1,0] + c[1,1,0] <= 0
 R143: - w[1,1,1] + c[1,1,1] <= 0
 R144: - w[1,1,2] + c[1,1,2] <= 0
 R145: - w[1,1,3] + c[1,1,3] <= 0
 R146: - w[1,1,4] + c[1,1,4] <= 0
 R147: - w[1,1,5] + c[1,1,5] <= 0
 R148: - w[1,1,6] + c[1,1,6] <= 0
 R149: - w[1,1,7] + c[1,1,7] <= 0
 R150: - w[1,1,8] + c[1,1,8] <= 0
 R151: - w[1,1,9] + c[1,1,9] <= 0
 R152: - w[1,2,0] + c[1,2,0] <= 0
 R153: - w[1,2,1] + c[1,2,1] <= 0
 R154: - w[1,2,2] + c[1,2,2] <= 0
 R155: - w[1,2,3] + c[1,2,3] <= 0
 R156: - w[1,2,4] + c[1,2,4] <= 0
 R157: - w[1,2,5] + c[1,2,5] <= 0
 R158: - w[1,2,6] + c[1,2,6] <= 0
 R159: - w[1,2,7] + c[1,2,7] <= 0
 R160: - w[1,2,8] + c[1,2,8] <= 0
 R161: - w[1,2,9] + c[1,2,9] <= 0
 R162: - w[1,3,0] + c[1,3,0] <= 0
 R163: - w[1,3,1] + c[1,3,1] <= 0
 R164: - w[1,3,2] + c[1,3,2] <= 0
 R165: - w[1,3,3] + c[1,3,3] <= 0
 R166: - w[1,3,4] + c[1,3,4] <= 0
 R167: - w[1,3,5] + c[1,3,5] <= 0
 R168: - w[1,3,6] + c[1,3,6] <= 0
 R169: - w[1,3,7] + c[1,3,7] <= 0
 R170: - w[1,3,8] + c[1,3,8] <= 0
 R171: - w[1,3,9] + c[1,3,9] <= 0
 R172: - w[1,4,0] + c[1,4,0] <= 0
 R173: - w[1,4,1] + c[1,4,1] <= 0
 R174: - w[1,4,2] + c[1,4,2] <= 0
 R175: - w[1,4,3] + c[1,4,3] <= 0
 R176: - w[1,4,4] + c[1,4,4] <= 0
 R177: - w[1,4,5] + c[1,4,5] <= 0
 R178: - w[1,4,6] + c[1,4,6] <= 0
 R179: - w[1,4,7] + c[1,4,7] <= 0
 R180: - w[1,4,8] + c[1,4,8] <= 0
 R181: - w[1,4,9] + c[1,4,9] <= 0
 R182: c[0,0,0] <= 2
 R183: c[0,0,1] <= 2
 R184: c[0,0,2] <= 2
 R185: c[0,0,3] <= 2
 R186: c[0,0,4] <= 2
 R187: c[0,0,5] <= 2
 R188: c[0,0,6] <= 2
 R189: c[0,0,7] <= 2
 R190: c[0,0,8] <= 2
 R191: c[0,0,9] <= 2
 R192: c[0,1,0] <= 2
 R193: c[0,1,1] <= 2
 R194: c[0,1,2] <= 2
 R195: c[0,1,3] <= 2
 R196: c[0,1,4] <= 2
 R197: c[0,1,5] <= 2
 R198: c[0,1,6] <= 2
 R199: c[0,1,7] <= 2
 R200: c[0,1,8] <= 2
 R201: c[0,1,9] <= 2
 R202: c[0,2,0] <= 2
 R203: c[0,2,1] <= 2
 R204: c[0,2,2] <= 2
 R205: c[0,2,3] <= 2
 R206: c[0,2,4] <= 2
 R207: c[0,2,5] <= 2
 R208: c[0,2,6] <= 2
 R209: c[0,2,7] <= 2
 R210: c[0,2,8] <= 2
 R211: c[0,2,9] <= 2
 R212: c[0,3,0] <= 2
 R213: c[0,3,1] <= 2
 R214: c[0,3,2] <= 2
 R215: c[0,3,3] <= 2
 R216: c[0,3,4] <= 2
 R217: c[0,3,5] <= 2
 R218: c[0,3,6] <= 2
 R219: c[0,3,7] <= 2
 R220: c[0,3,8] <= 2
 R221: c[0,3,9] <= 2
 R222: c[0,4,0] <= 2
 R223: c[0,4,1] <= 2
 R224: c[0,4,2] <= 2
 R225: c[0,4,3] <= 2
 R226: c[0,4,4] <= 2
 R227: c[0,4,5] <= 2
 R228: c[0,4,6] <= 2
 R229: c[0,4,7] <= 2
 R230: c[0,4,8] <= 2
 R231: c[0,4,9] <= 2
 R232: c[1,0,0] <= 2
 R233: c[1,0,1] <= 2
 R234: c[1,0,2] <= 2
 R235: c[1,0,3] <= 2
 R236: c[1,0,4] <= 2
 R237: c[1,0,5] <= 2
 R238: c[1,0,6] <= 2
 R239: c[1,0,7] <= 2
 R240: c[1,0,8] <= 2
 R241: c[1,0,9] <= 2
 R242: c[1,1,0] <= 2
 R243: c[1,1,1] <= 2
 R244: c[1,1,2] <= 2
 R245: c[1,1,3] <= 2
 R246: c[1,1,4] <= 2
 R247: c[1,1,5] <= 2
 R248: c[1,1,6] <= 2
 R249: c[1,1,7] <= 2
 R250: c[1,1,8] <= 2
 R251: c[1,1,9] <= 2
 R252: c[1,2,0] <= 2
 R253: c[1,2,1] <= 2
 R254: c[1,2,2] <= 2
 R255: c[1,2,3] <= 2
 R256: c[1,2,4] <= 2
 R257: c[1,2,5] <= 2
 R258: c[1,2,6] <= 2
 R259: c[1,2,7] <= 2
 R260: c[1,2,8] <= 2
 R261: c[1,2,9] <= 2
 R262: c[1,3,0] <= 2
 R263: c[1,3,1] <= 2
 R264: c[1,3,2] <= 2
 R265: c[1,3,3] <= 2
 R266: c[1,3,4] <= 2
 R267: c[1,3,5] <= 2
 R268: c[1,3,6] <= 2
 R269: c[1,3,7] <= 2
 R270: c[1,3,8] <= 2
 R271: c[1,3,9] <= 2
 R272: c[1,4,0] <= 2
 R273: c[1,4,1] <= 2
 R274: c[1,4,2] <= 2
 R275: c[1,4,3] <= 2
 R276: c[1,4,4] <= 2
 R277: c[1,4,5] <= 2
 R278: c[1,4,6] <= 2
 R279: c[1,4,7] <= 2
 R280: c[1,4,8] <= 2
 R281: c[1,4,9] <= 2
Bounds
Generals
 c[0,0,0] c[0,0,1] c[0,0,2] c[0,0,3] c[0,0,4] c[0,0,5] c[0,0,6] c[0,0,7]
 c[0,0,8] c[0,0,9] c[0,1,0] c[0,1,1] c[0,1,2] c[0,1,3] c[0,1,4] c[0,1,5]
 c[0,1,6] c[0,1,7] c[0,1,8] c[0,1,9] c[0,2,0] c[0,2,1] c[0,2,2] c[0,2,3]
 c[0,2,4] c[0,2,5] c[0,2,6] c[0,2,7] c[0,2,8] c[0,2,9] c[0,3,0] c[0,3,1]
 c[0,3,2] c[0,3,3] c[0,3,4] c[0,3,5] c[0,3,6] c[0,3,7] c[0,3,8] c[0,3,9]
 c[0,4,0] c[0,4,1] c[0,4,2] c[0,4,3] c[0,4,4] c[0,4,5] c[0,4,6] c[0,4,7]
 c[0,4,8] c[0,4,9] c[1,0,0] c[1,0,1] c[1,0,2] c[1,0,3] c[1,0,4] c[1,0,5]
 c[1,0,6] c[1,0,7] c[1,0,8] c[1,0,9] c[1,1,0] c[1,1,1] c[1,1,2] c[1,1,3]
 c[1,1,4] c[1,1,5] c[1,1,6] c[1,1,7] c[1,1,8] c[1,1,9] c[1,2,0] c[1,2,1]
 c[1,2,2] c[1,2,3] c[1,2,4] c[1,2,5] c[1,2,6] c[1,2,7] c[1,2,8] c[1,2,9]
 c[1,3,0] c[1,3,1] c[1,3,2] c[1,3,3] c[1,3,4] c[1,3,5] c[1,3,6] c[1,3,7]
 c[1,3,8] c[1,3,9] c[1,4,0] c[1,4,1] c[1,4,2] c[1,4,3] c[1,4,4] c[1,4,5]
 c[1,4,6] c[1,4,7] c[1,4,8] c[1,4,9]
End
